data/solutions/recovery/degenerate/moderate/flexible/degenerate_moderate_instance36/31.sol
Elapsed time: 27.11
Upper bound: 1410119587.0
Planning weighted value: 37073962994.0
C[0]=1410119587.0
C[1]=1410110724.0
C[2]=1410108557.0
C[3]=1409664146.0
C[4]=0.0
y[0]=0
y[1]=0
y[2]=2
y[3]=0
y[4]=0
y[5]=1
y[6]=0
y[7]=3
y[8]=2
y[9]=0
y[10]=3
y[11]=0
y[12]=2
y[13]=3
y[14]=2
y[15]=2
y[16]=2
y[17]=2
y[18]=2
y[19]=0
y[20]=0
y[21]=1
y[22]=2
y[23]=3
y[24]=2
y[25]=1
y[26]=1
y[27]=0
y[28]=1
y[29]=1
y[30]=3
y[31]=3
y[32]=0
y[33]=3
y[34]=2
y[35]=0
y[36]=1
y[37]=0
y[38]=3
y[39]=2
y[40]=3
y[41]=0
y[42]=0
y[43]=2
y[44]=1
y[45]=3
