data/solutions/recovery/degenerate/moderate/flexible/degenerate_moderate_instance36/31.log

Log started (V12.6.3.0) Sat Apr 21 11:28:11 2018

New value for default parallel thread count: 1

Problem '/tmp/tmplLnnpl.pyomo.lp' read.
Read time = 0.00 sec. (0.11 ticks)

Problem name         : /tmp/tmplLnnpl.pyomo.lp
Objective sense      : Minimize
Variables            :     237  [Nneg: 1,  Binary: 230,  General Integer: 6]
Objective nonzeros   :       1
Linear constraints   :     104  [Less: 51,  Equal: 53]
  Nonzeros           :    7698
  RHS nonzeros       :      93

Variables            : Min LB: 0.000000         Max UB: 1.000000       
Objective nonzeros   : Min   : 1.000000         Max   : 1.000000       
Linear constraints   :
  Nonzeros           : Min   : 1.000000         Max   : 2.657465e+08   
  RHS nonzeros       : Min   : 1.000000         Max   : 5.000000       
Tried aggregator 1 time.
MIP Presolve eliminated 49 rows and 48 columns.
Reduced MIP has 55 rows, 189 columns, and 497 nonzeros.
Reduced MIP has 184 binaries, 5 generals, 0 SOSs, and 0 indicators.
Presolve time = 0.00 sec. (1.40 ticks)
Found incumbent of value 2.7528199e+09 after 0.00 sec. (1.64 ticks)
Probing time = 0.00 sec. (0.37 ticks)
Tried aggregator 1 time.
Reduced MIP has 55 rows, 189 columns, and 497 nonzeros.
Reduced MIP has 184 binaries, 5 generals, 0 SOSs, and 0 indicators.
Presolve time = 0.00 sec. (0.31 ticks)
Probing time = 0.00 sec. (0.37 ticks)
Clique table members: 46.
MIP emphasis: balance optimality and feasibility.
MIP search method: dynamic search.
Parallel mode: none, using 1 thread.
Root relaxation solution time = 0.00 sec. (0.79 ticks)

        Nodes                                         Cuts/
   Node  Left     Objective  IInf  Best Integer    Best Bound    ItCnt     Gap

*     0+    0                       2.75282e+09        0.0000           100.00%
      0     0   1.41000e+09    13   2.75282e+09   1.41000e+09      140   48.78%
      0     0   1.41000e+09    12   2.75282e+09      Fract: 2      151   48.78%
*     0+    0                       1.45265e+09   1.41000e+09             2.94%
*     0+    0                       1.43715e+09   1.41000e+09             1.89%
*     0+    0                       1.43377e+09   1.41000e+09             1.66%
*     0+    0                       1.43072e+09   1.41000e+09             1.45%
      0     2   1.41000e+09     6   1.43072e+09   1.41000e+09      151    1.45%
Elapsed time = 0.02 sec. (11.63 ticks, tree = 0.01 MB, solutions = 5)
*    20+   20                       1.42993e+09   1.41000e+09             1.39%
*    50+   44                       1.42043e+09   1.41000e+09             0.73%
*    60+   50                       1.41491e+09   1.41000e+09             0.35%
*   120+   70                       1.41352e+09   1.41000e+09             0.25%
*  1000+  370                       1.41348e+09   1.41000e+09             0.25%
*  1100+  431                       1.41341e+09   1.41000e+09             0.24%
*  1464+  583                       1.41311e+09   1.41000e+09             0.22%
*  1567+  383                       1.41270e+09   1.41000e+09             0.19%
*  1567+  275                       1.41090e+09   1.41000e+09             0.06%
*  1767+  227                       1.41059e+09   1.41000e+09             0.04%
   1867   235   1.41000e+09     6   1.41059e+09   1.41000e+09     5335    0.04%
   1868   235   1.41000e+09     6   1.41059e+09   1.41000e+09     5335    0.04%
   1869   235   1.41000e+09     6   1.41059e+09   1.41000e+09     5336    0.04%
   1870   235   1.41000e+09     6   1.41059e+09   1.41000e+09     5337    0.04%
   1871   236   1.41000e+09     6   1.41059e+09   1.41000e+09     5338    0.04%
   1872   236   1.41000e+09     6   1.41059e+09   1.41000e+09     5340    0.04%
   1873   234        cutoff         1.41059e+09   1.41000e+09     5346    0.04%
   1874   235   1.41000e+09     5   1.41059e+09   1.41000e+09     5347    0.04%
   1875   236   1.41000e+09     6   1.41059e+09   1.41000e+09     5349    0.04%
   5001  2485   1.41000e+09     8   1.41059e+09   1.41000e+09    10927    0.04%
Elapsed time = 1.14 sec. (965.32 ticks, tree = 0.84 MB, solutions = 15)
  19417 12053   1.41000e+09     6   1.41059e+09   1.41000e+09    40272    0.04%
  19418 12054   1.41000e+09     8   1.41059e+09   1.41000e+09    40273    0.04%
  19419 12055   1.41000e+09     6   1.41059e+09   1.41000e+09    40274    0.04%
  19420 12056   1.41000e+09     8   1.41059e+09   1.41000e+09    40275    0.04%
  19421 12057   1.41000e+09     8   1.41059e+09   1.41000e+09    40276    0.04%
  19422 12058   1.41000e+09     8   1.41059e+09   1.41000e+09    40277    0.04%
  19423 12059   1.41000e+09     8   1.41059e+09   1.41000e+09    40278    0.04%
  19424 12060   1.41000e+09     8   1.41059e+09   1.41000e+09    40279    0.04%
  19425 12061   1.41000e+09     8   1.41059e+09   1.41000e+09    40280    0.04%
  19426 12062   1.41000e+09     6   1.41059e+09   1.41000e+09    40281    0.04%
Elapsed time = 2.24 sec. (1919.43 ticks, tree = 3.96 MB, solutions = 15)
* 28470 15558      integral     0   1.41058e+09   1.41000e+09    61058    0.04%
* 31166 16239      integral     0   1.41047e+09   1.41000e+09    68124    0.03%
  31255 16261   1.41000e+09     8   1.41047e+09   1.41000e+09    68429    0.03%
  31256 16262   1.41000e+09     6   1.41047e+09   1.41000e+09    68432    0.03%
  31257 16263   1.41000e+09     8   1.41047e+09   1.41000e+09    68434    0.03%
  31258 16264   1.41000e+09     6   1.41047e+09   1.41000e+09    68437    0.03%
  31259 16265   1.41000e+09     6   1.41047e+09   1.41000e+09    68438    0.03%
  31260 16266   1.41000e+09     6   1.41047e+09   1.41000e+09    68439    0.03%
  31261 16265    infeasible         1.41047e+09   1.41000e+09    68442    0.03%
  31262 16264        cutoff         1.41047e+09   1.41000e+09    68453    0.03%
  31263 16263        cutoff         1.41047e+09   1.41000e+09    68468    0.03%
  31264 16262        cutoff         1.41047e+09   1.41000e+09    68481    0.03%
Elapsed time = 3.38 sec. (2874.55 ticks, tree = 5.24 MB, solutions = 17)
* 35698 18792      integral     0   1.41039e+09   1.41000e+09    78429    0.03%
* 35832 18834      integral     0   1.41036e+09   1.41000e+09    78729    0.03%
  42864 21071        cutoff         1.41036e+09   1.41000e+09    97078    0.03%
  42865 21070        cutoff         1.41036e+09   1.41000e+09    97091    0.03%
  42866 21069        cutoff         1.41036e+09   1.41000e+09    97102    0.03%
  42867 21068        cutoff         1.41036e+09   1.41000e+09    97108    0.03%
  42868 21067        cutoff         1.41036e+09   1.41000e+09    97117    0.03%
  42869 21066        cutoff         1.41036e+09   1.41000e+09    97123    0.03%
  42870 21065    infeasible         1.41036e+09   1.41000e+09    97123    0.03%
  42871 21064        cutoff         1.41036e+09   1.41000e+09    97128    0.03%
  42872 21065   1.41000e+09     8   1.41036e+09   1.41000e+09    97131    0.03%
  42873 21066   1.41028e+09     9   1.41036e+09   1.41000e+09    97137    0.03%
Elapsed time = 4.50 sec. (3829.80 ticks, tree = 7.12 MB, solutions = 19)
  53778 24018    infeasible         1.41036e+09   1.41000e+09   125823    0.03%
  53779 24017    infeasible         1.41036e+09   1.41000e+09   125823    0.03%
  53780 24016    infeasible         1.41036e+09   1.41000e+09   125823    0.03%
  53781 24017   1.41000e+09     7   1.41036e+09   1.41000e+09   125828    0.03%
  53782 24018   1.41000e+09     7   1.41036e+09   1.41000e+09   125829    0.03%
  53783 24019   1.41000e+09     5   1.41036e+09   1.41000e+09   125830    0.03%
  53784 24020   1.41000e+09     6   1.41036e+09   1.41000e+09   125832    0.03%
  53785 24021   1.41000e+09     6   1.41036e+09   1.41000e+09   125834    0.03%
  53786 24022   1.41000e+09     6   1.41036e+09   1.41000e+09   125835    0.03%
  53787 24023   1.41000e+09     6   1.41036e+09   1.41000e+09   125836    0.03%
Elapsed time = 5.63 sec. (4784.12 ticks, tree = 8.00 MB, solutions = 19)
* 62450 25596      integral     0   1.41019e+09   1.41000e+09   147060    0.01%
  63880 25769        cutoff         1.41019e+09   1.41000e+09   151138    0.01%
  63881 25768        cutoff         1.41019e+09   1.41000e+09   151143    0.01%
  63882 25767    infeasible         1.41019e+09   1.41000e+09   151143    0.01%
  63883 25768   1.41000e+09     6   1.41019e+09   1.41000e+09   151144    0.01%
  63884 25769   1.41000e+09     8   1.41019e+09   1.41000e+09   151146    0.01%
  63885 25768    infeasible         1.41019e+09   1.41000e+09   151151    0.01%
  63886 25767        cutoff         1.41019e+09   1.41000e+09   151153    0.01%
  63887 25768   1.41000e+09     6   1.41019e+09   1.41000e+09   151154    0.01%
  63888 25769   1.41000e+09     6   1.41019e+09   1.41000e+09   151155    0.01%
  63889 25768        cutoff         1.41019e+09   1.41000e+09   151159    0.01%
Elapsed time = 6.76 sec. (5739.41 ticks, tree = 8.53 MB, solutions = 20)
  73944 28235   1.41000e+09     6   1.41019e+09   1.41000e+09   178739    0.01%
  73945 28236   1.41000e+09     6   1.41019e+09   1.41000e+09   178740    0.01%
  73946 28237   1.41000e+09     6   1.41019e+09   1.41000e+09   178742    0.01%
  73947 28238   1.41000e+09     6   1.41019e+09   1.41000e+09   178743    0.01%
  73948 28239   1.41000e+09     6   1.41019e+09   1.41000e+09   178744    0.01%
  73949 28240   1.41000e+09     6   1.41019e+09   1.41000e+09   178745    0.01%
  73950 28241   1.41000e+09     6   1.41019e+09   1.41000e+09   178746    0.01%
  73951 28242   1.41000e+09     6   1.41019e+09   1.41000e+09   178747    0.01%
  73952 28243   1.41000e+09     6   1.41019e+09   1.41000e+09   178748    0.01%
  73953 28244   1.41013e+09    12   1.41019e+09   1.41000e+09   178753    0.01%
Elapsed time = 7.90 sec. (6694.49 ticks, tree = 9.28 MB, solutions = 20)
* 81968 29901      integral     0   1.41019e+09   1.41000e+09   200201    0.01%
  83745 30218   1.41000e+09     6   1.41019e+09   1.41000e+09   205686    0.01%
  83746 30219   1.41000e+09     5   1.41019e+09   1.41000e+09   205690    0.01%
  83747 30220   1.41000e+09     5   1.41019e+09   1.41000e+09   205694    0.01%
  83748 30221   1.41000e+09     7   1.41019e+09   1.41000e+09   205696    0.01%
  83749 30222   1.41000e+09     8   1.41019e+09   1.41000e+09   205697    0.01%
  83750 30221        cutoff         1.41019e+09   1.41000e+09   205706    0.01%
  83751 30220        cutoff         1.41019e+09   1.41000e+09   205716    0.01%
  83752 30219        cutoff         1.41019e+09   1.41000e+09   205721    0.01%
  83753 30218    infeasible         1.41019e+09   1.41000e+09   205721    0.01%
  83754 30217        cutoff         1.41019e+09   1.41000e+09   205722    0.01%
Elapsed time = 9.01 sec. (7649.47 ticks, tree = 9.88 MB, solutions = 21)
* 87883 30977      integral     0   1.41016e+09   1.41000e+09   217810    0.01%
  93626 32325   1.41000e+09     6   1.41016e+09   1.41000e+09   234340    0.01%
  93627 32326   1.41000e+09     7   1.41016e+09   1.41000e+09   234342    0.01%
  93628 32327   1.41000e+09     6   1.41016e+09   1.41000e+09   234344    0.01%
  93629 32328   1.41000e+09     7   1.41016e+09   1.41000e+09   234346    0.01%
  93630 32329   1.41000e+09     8   1.41016e+09   1.41000e+09   234347    0.01%
  93631 32330   1.41000e+09     6   1.41016e+09   1.41000e+09   234349    0.01%
  93632 32329        cutoff         1.41016e+09   1.41000e+09   234362    0.01%
  93633 32328        cutoff         1.41016e+09   1.41000e+09   234374    0.01%
  93634 32327        cutoff         1.41016e+09   1.41000e+09   234381    0.01%
  93635 32326        cutoff         1.41016e+09   1.41000e+09   234385    0.01%
Elapsed time = 10.14 sec. (8604.04 ticks, tree = 10.49 MB, solutions = 22)
 105654 36443        cutoff         1.41016e+09   1.41000e+09   263372    0.01%
 105655 36442        cutoff         1.41016e+09   1.41000e+09   263380    0.01%
 105656 36441        cutoff         1.41016e+09   1.41000e+09   263388    0.01%
 105657 36440        cutoff         1.41016e+09   1.41000e+09   263398    0.01%
 105658 36439        cutoff         1.41016e+09   1.41000e+09   263406    0.01%
 105659 36438        cutoff         1.41016e+09   1.41000e+09   263423    0.01%
 105660 36437    infeasible         1.41016e+09   1.41000e+09   263428    0.01%
 105661 36438   1.41000e+09     6   1.41016e+09   1.41000e+09   263429    0.01%
 105662 36439   1.41000e+09     8   1.41016e+09   1.41000e+09   263431    0.01%
 134575 43878   1.41000e+09     6   1.41016e+09   1.41000e+09   347336    0.01%
Elapsed time = 14.65 sec. (12418.73 ticks, tree = 14.89 MB, solutions = 22)
 176720 60499   1.41000e+09     6   1.41016e+09   1.41000e+09   453981    0.01%
 176721 60498        cutoff         1.41016e+09   1.41000e+09   453984    0.01%
 176722 60497    infeasible         1.41016e+09   1.41000e+09   453987    0.01%
 176723 60496        cutoff         1.41016e+09   1.41000e+09   453994    0.01%
 176724 60497   1.41000e+09     8   1.41016e+09   1.41000e+09   453998    0.01%
 176725 60498   1.41000e+09     6   1.41016e+09   1.41000e+09   453999    0.01%
 176726 60497        cutoff         1.41016e+09   1.41000e+09   454008    0.01%
 176727 60496    infeasible         1.41016e+09   1.41000e+09   454016    0.01%
 176728 60495    infeasible         1.41016e+09   1.41000e+09   454016    0.01%
 176729 60494        cutoff         1.41016e+09   1.41000e+09   454018    0.01%
Elapsed time = 19.10 sec. (16235.18 ticks, tree = 19.66 MB, solutions = 22)
 218383 75789   1.41000e+09     8   1.41016e+09   1.41000e+09   564431    0.01%
 218384 75790   1.41000e+09     8   1.41016e+09   1.41000e+09   564432    0.01%
 218385 75791   1.41000e+09     8   1.41016e+09   1.41000e+09   564437    0.01%
 218386 75790        cutoff         1.41016e+09   1.41000e+09   564458    0.01%
 218387 75789        cutoff         1.41016e+09   1.41000e+09   564460    0.01%
 218388 75788        cutoff         1.41016e+09   1.41000e+09   564465    0.01%
 218389 75789   1.41000e+09     8   1.41016e+09   1.41000e+09   564470    0.01%
 218390 75790   1.41000e+09     8   1.41016e+09   1.41000e+09   564471    0.01%
 218391 75791   1.41000e+09     8   1.41016e+09   1.41000e+09   564472    0.01%
 218392 75792   1.41000e+09     8   1.41016e+09   1.41000e+09   564473    0.01%
Elapsed time = 23.54 sec. (20051.69 ticks, tree = 25.94 MB, solutions = 22)
*245697+83008                       1.41012e+09   1.41000e+09             0.01%

Cover cuts applied:  1
Mixed integer rounding cuts applied:  1

Root node processing (before b&c):
  Real time             =    0.02 sec. (11.66 ticks)
Sequential b&c:
  Real time             =   27.01 sec. (23031.42 ticks)
                          ------------
Total (root+branch&cut) =   27.03 sec. (23043.08 ticks)

Solution pool: 23 solutions saved.

MIP - Integer optimal, tolerance (0.0001/1e-06):  Objective =  1.4101195870e+09
Current MIP best bound =  1.4100007540e+09 (gap = 118833, 0.01%)
Solution time =   27.03 sec.  Iterations = 644478  Nodes = 245697 (83009)
Deterministic time = 23043.08 ticks  (852.58 ticks/sec)


Incumbent solution written to file '/tmp/tmpgGZs_n.cplex.sol'.
